(set-logic QF_UF)
(declare-fun A0 () Bool)
(declare-fun A1 () Bool)
(declare-fun A3 () Bool)
(declare-fun A4 () Bool)
(declare-fun A5 () Bool)
(declare-fun A6 () Bool)
(declare-fun A7 () Bool)
(declare-fun A8 () Bool)
(declare-fun A9 () Bool)
(declare-fun A10 () Bool)
(declare-fun A11 () Bool)
(declare-fun A12 () Bool)
(declare-fun A13 () Bool)
(declare-fun A14 () Bool)
(declare-fun A15 () Bool)
(declare-fun A17 () Bool)
(declare-fun A18 () Bool)
(declare-fun A19 () Bool)
(declare-fun A20 () Bool)
(declare-fun A21 () Bool)
(declare-fun A22 () Bool)
(declare-fun A24 () Bool)
(declare-fun A25 () Bool)
(declare-fun A26 () Bool)
(declare-fun A27 () Bool)
(declare-fun A28 () Bool)
(declare-fun A29 () Bool)
(assert (let ((.def_0 (not A17))) (let ((.def_1 (or .def_0 A24))) (let ((.def_2 (and A28 A20))) (let ((.def_3 (and .def_2 .def_1))) (let ((.def_4 (not .def_3))) (let ((.def_5 (not A26))) (let ((.def_6 (= .def_5 A5))) (let ((.def_7 (or A15 A5))) (let ((.def_8 (and .def_7 .def_6))) (let ((.def_9 (and .def_8 .def_4))) (let ((.def_10 (not A18))) (let ((.def_11 (or A19 .def_10))) (let ((.def_12 (not .def_11))) (let ((.def_13 (not A3))) (let ((.def_14 (not A21))) (let ((.def_15 (and .def_14 .def_13))) (let ((.def_16 (or .def_15 .def_12))) (let ((.def_17 (not .def_16))) (let ((.def_18 (or A11 A25))) (let ((.def_19 (not .def_18))) (let ((.def_20 (not A11))) (let ((.def_21 (and A4 .def_20))) (let ((.def_22 (or .def_21 .def_19))) (let ((.def_23 (not .def_22))) (let ((.def_24 (= .def_23 .def_17))) (let ((.def_25 (and .def_24 .def_9))) (let ((.def_26 (not .def_25))) (let ((.def_27 (not A0))) (let ((.def_28 (or .def_27 A24))) (let ((.def_29 (and .def_20 A12))) (let ((.def_30 (not .def_29))) (let ((.def_31 (and .def_30 .def_28))) (let ((.def_32 (and A6 .def_27))) (let ((.def_33 (and .def_10 A9))) (let ((.def_34 (not .def_33))) (let ((.def_35 (= .def_34 .def_32))) (let ((.def_36 (or .def_35 .def_31))) (let ((.def_37 (not A8))) (let ((.def_38 (or .def_37 .def_20))) (let ((.def_39 (not .def_38))) (let ((.def_40 (or .def_37 .def_13))) (let ((.def_41 (and .def_40 .def_39))) (let ((.def_42 (not A22))) (let ((.def_43 (not A5))) (let ((.def_44 (and .def_43 .def_42))) (let ((.def_45 (not A19))) (let ((.def_46 (or .def_42 .def_45))) (let ((.def_47 (or .def_46 .def_44))) (let ((.def_48 (not .def_47))) (let ((.def_49 (or .def_48 .def_41))) (let ((.def_50 (or .def_49 .def_36))) (let ((.def_51 (and .def_50 .def_26))) (let ((.def_52 (not .def_51))) (let ((.def_53 (or A14 .def_43))) (let ((.def_54 (= A8 A20))) (let ((.def_55 (or .def_54 .def_53))) (let ((.def_56 (not .def_55))) (let ((.def_57 (not A4))) (let ((.def_58 (and A7 .def_57))) (let ((.def_59 (not A10))) (let ((.def_60 (not A7))) (let ((.def_61 (or .def_60 .def_59))) (let ((.def_62 (not .def_61))) (let ((.def_63 (or .def_62 .def_58))) (let ((.def_64 (or .def_63 .def_56))) (let ((.def_65 (not .def_64))) (let ((.def_66 (not A20))) (let ((.def_67 (and .def_66 A0))) (let ((.def_68 (not .def_67))) (let ((.def_69 (and .def_10 A8))) (let ((.def_70 (or .def_69 .def_68))) (let ((.def_71 (not .def_70))) (let ((.def_72 (not A6))) (let ((.def_73 (or .def_72 A3))) (let ((.def_74 (not A27))) (let ((.def_75 (or A26 .def_74))) (let ((.def_76 (not .def_75))) (let ((.def_77 (or .def_76 .def_73))) (let ((.def_78 (not .def_77))) (let ((.def_79 (and .def_78 .def_71))) (let ((.def_80 (not .def_79))) (let ((.def_81 (and .def_80 .def_65))) (let ((.def_82 (not .def_81))) (let ((.def_83 (not A25))) (let ((.def_84 (and .def_74 .def_83))) (let ((.def_85 (or .def_10 A8))) (let ((.def_86 (and .def_85 .def_84))) (let ((.def_87 (or A1 A14))) (let ((.def_88 (or .def_57 A29))) (let ((.def_89 (and .def_88 .def_87))) (let ((.def_90 (not .def_89))) (let ((.def_91 (or .def_90 .def_86))) (let ((.def_92 (not .def_91))) (let ((.def_93 (not A24))) (let ((.def_94 (or .def_93 .def_42))) (let ((.def_95 (and A10 .def_66))) (let ((.def_96 (and .def_95 .def_94))) (let ((.def_97 (not .def_96))) (let ((.def_98 (or A22 A13))) (let ((.def_99 (or .def_74 A18))) (let ((.def_100 (not .def_99))) (let ((.def_101 (or .def_100 .def_98))) (let ((.def_102 (and .def_101 .def_97))) (let ((.def_103 (or .def_102 .def_92))) (let ((.def_104 (not .def_103))) (let ((.def_105 (= .def_104 .def_82))) (let ((.def_106 (not .def_105))) (let ((.def_107 (= .def_106 .def_52))) (let ((.def_108 (not .def_107))) .def_108))))))))))))))))))))))))))))))))))))))))))))))))))))))))))))))))))))))))))))))))))))))))))))))))))))))))))))))
(check-sat)
